
******************************************************************************
This program contains Ipopt, a library for large-scale nonlinear optimization.
 Ipopt is released as open source code under the Eclipse Public License (EPL).
         For more information visit http://projects.coin-or.org/Ipopt
******************************************************************************

This is Ipopt version 3.12.12, running with linear solver mumps.
NOTE: Other linear solvers might be more efficient (see Ipopt documentation).

Number of nonzeros in equality constraint Jacobian...:     3428
Number of nonzeros in inequality constraint Jacobian.:      641
Number of nonzeros in Lagrangian Hessian.............:        0

Total number of variables............................:      221
                     variables with only lower bounds:        0
                variables with lower and upper bounds:      221
                     variables with only upper bounds:        0
Total number of equality constraints.................:      154
Total number of inequality constraints...............:      221
        inequality constraints with only lower bounds:        0
   inequality constraints with lower and upper bounds:      221
        inequality constraints with only upper bounds:        0

iter    objective    inf_pr   inf_du lg(mu)  ||d||  lg(rg) alpha_du alpha_pr  ls
   0  9.9000001e-01 4.30e-01 6.67e-01   0.0 0.00e+00    -  0.00e+00 0.00e+00   0
   1  9.2460382e-01 3.05e-01 1.12e+01  -0.9 2.13e-01    -  2.79e-01 3.98e-01f  1
   2  8.2122686e-01 1.99e-01 1.34e+00  -1.4 1.03e-01    -  5.14e-01 1.00e+00h  1
   3  3.7831303e-01 1.87e+00 4.10e+00  -1.0 4.43e-01    -  6.95e-01 1.00e+00f  1
   4  4.4899986e-01 3.37e-01 7.35e-01  -1.4 1.63e-01    -  9.91e-01 1.00e+00h  1
   5  3.1983392e-01 4.03e-01 3.30e-01  -2.0 1.30e-01    -  9.37e-01 1.00e+00h  1
   6  2.2341926e-01 5.95e-01 1.13e-01  -2.5 1.26e-01    -  9.98e-01 1.00e+00h  1
   7  1.4855051e-01 6.75e-01 5.54e-02  -3.1 1.90e-01    -  9.91e-01 1.00e+00h  1
   8  1.1029532e-01 4.18e-01 1.61e-01  -3.5 1.94e-01    -  9.88e-01 1.00e+00h  1
   9  8.8612441e-02 2.75e-01 5.48e-02  -4.0 1.75e-01    -  1.00e+00 1.00e+00h  1
iter    objective    inf_pr   inf_du lg(mu)  ||d||  lg(rg) alpha_du alpha_pr  ls
  10  7.1930217e-02 3.29e-01 5.29e-02  -4.7 2.40e-01    -  1.00e+00 1.00e+00h  1
  11  6.9295451e-02 8.94e-02 8.69e-02  -3.9 2.06e-01    -  1.00e+00 1.00e+00h  1
  12  6.6317379e-02 5.23e-02 3.36e-02  -3.9 2.57e-01    -  9.99e-01 1.00e+00h  1
  13  6.4435084e-02 5.84e-02 2.21e-02  -4.4 2.36e-01    -  1.00e+00 9.92e-01h  1
  14  6.3558627e-02 5.52e-02 1.45e-02  -5.0 2.23e-01    -  1.00e+00 1.00e+00h  1
  15  6.3463167e-02 3.15e-03 2.14e-02  -4.7 1.41e-01    -  1.00e+00 1.00e+00h  1
  16  6.3152426e-02 7.90e-03 1.37e-02  -5.3 8.12e-02    -  1.00e+00 9.96e-01h  1
  17  6.3052889e-02 1.18e-03 6.55e-03  -5.6 1.58e-01    -  1.00e+00 9.99e-01h  1
  18  6.3006100e-02 4.39e-03 6.06e-03  -5.9 2.25e-01    -  1.00e+00 1.00e+00h  1
  19  6.2963038e-02 1.02e-03 9.06e-04  -6.5 8.34e-02    -  1.00e+00 1.00e+00h  1
iter    objective    inf_pr   inf_du lg(mu)  ||d||  lg(rg) alpha_du alpha_pr  ls
  20  6.2949432e-02 9.59e-04 7.11e-04  -6.0 8.44e-02    -  1.00e+00 1.00e+00h  1
  21  6.2928221e-02 2.08e-03 2.22e-03  -6.8 5.93e-02    -  1.00e+00 1.00e+00h  1
  22  6.2930504e-02 2.69e-03 9.97e-04  -6.3 8.53e-02    -  1.00e+00 1.00e+00h  1
  23  6.2929659e-02 2.21e-04 3.72e-04  -6.4 2.58e-02    -  1.00e+00 1.00e+00h  1
  24  6.2921853e-02 7.54e-04 6.90e-04  -7.2 1.70e-02    -  1.00e+00 1.00e+00h  1
  25  6.2920772e-02 3.00e-05 1.93e-04  -7.4 1.68e-02    -  1.00e+00 1.00e+00h  1
  26  6.2920206e-02 1.43e-05 2.51e-04  -7.6 1.02e-02    -  1.00e+00 9.89e-01h  1
  27  6.2920116e-02 9.43e-06 7.79e-05  -8.0 2.57e-02    -  1.00e+00 1.00e+00H  1
  28  6.2919509e-02 4.22e-05 2.14e-04  -8.3 8.01e-03    -  1.00e+00 9.95e-01h  1
  29  6.2919263e-02 3.88e-05 7.86e-05  -8.5 4.86e-03    -  1.00e+00 1.00e+00h  1
iter    objective    inf_pr   inf_du lg(mu)  ||d||  lg(rg) alpha_du alpha_pr  ls
  30  6.2919179e-02 6.07e-06 4.14e-05  -8.5 2.44e-03    -  1.00e+00 1.00e+00h  1
  31  6.2919139e-02 3.17e-05 1.17e-04  -8.2 7.54e-03    -  1.00e+00 9.55e-01h  1
  32  6.2919342e-02 7.91e-07 1.04e-05  -8.6 1.75e-02    -  1.00e+00 1.00e+00H  1
  33  6.2918964e-02 4.90e-05 2.53e-04  -8.9 5.36e-03    -  1.00e+00 8.23e-01h  1
  34  6.2918855e-02 1.07e-05 1.08e-04  -9.5 3.39e-03    -  1.00e+00 1.00e+00h  1
  35  6.2918809e-02 6.59e-07 3.83e-05  -9.1 4.14e-03    -  1.00e+00 1.00e+00h  1
  36  6.2918830e-02 3.23e-07 9.66e-06  -9.5 3.46e-02    -  1.00e+00 9.98e-01H  1
  37  6.2918781e-02 4.91e-06 2.34e-05  -9.8 2.05e-01    -  1.00e+00 9.24e-02h  2
  38  6.2918781e-02 8.26e-05 3.48e-04  -7.8 1.17e-01    -  1.00e+00 1.80e-01h  1
  39  6.2919811e-02 2.45e-06 1.96e-04  -7.9 1.88e-02    -  5.41e-01 1.00e+00H  1
iter    objective    inf_pr   inf_du lg(mu)  ||d||  lg(rg) alpha_du alpha_pr  ls
  40  6.2918812e-02 1.25e-04 2.31e-04  -7.9 1.08e-02    -  1.00e+00 1.00e+00h  1
  41  6.2918772e-02 5.30e-05 3.08e-04  -7.9 6.40e-03    -  1.00e+00 1.00e+00h  1
  42  6.2918482e-02 1.48e-05 7.31e-05  -9.4 5.42e-03    -  1.00e+00 1.00e+00h  1
  43  6.2918508e-02 4.49e-06 2.78e-05  -9.1 2.68e-03    -  1.00e+00 1.00e+00h  1
  44  6.2918458e-02 2.28e-07 8.30e-07 -10.1 1.68e-03    -  1.00e+00 1.00e+00h  1

Number of Iterations....: 44

                                   (scaled)                 (unscaled)
Objective...............:   6.2918458278746522e-02    6.2918458278746522e-02
Dual infeasibility......:   8.3048816816020251e-07    8.3048816816020251e-07
Constraint violation....:   2.8775773220185241e-08    2.2815173396415860e-07
Complementarity.........:   2.8002024568068236e-10    2.8002024568068236e-10
Overall NLP error.......:   8.3048816816020251e-07    8.3048816816020251e-07


Number of objective function evaluations             = 52
Number of objective gradient evaluations             = 45
Number of equality constraint evaluations            = 52
Number of inequality constraint evaluations          = 52
Number of equality constraint Jacobian evaluations   = 45
Number of inequality constraint Jacobian evaluations = 45
Number of Lagrangian Hessian evaluations             = 0
Total CPU secs in IPOPT (w/o function evaluations)   =      0.333
Total CPU secs in NLP function evaluations           =      0.181

EXIT: Optimal Solution Found.
